NAME : XML100_3173_17
DIMENSION : 101
NB_CLUSTERS : 22
CLUSTERING_ALG : KMeans
CLUSTERING_PARAMS : k(21)
CLUSTERS
1 0
2 18 66 78
3 39 42 51 56 76
4 15 23 36 64 77
5 19 33 45 71
6 1 11 32 38 46 55 63 92
7 40 82 94 98
8 53 57 67 75
9 6 7 8 13 28 90 95
10 50 58 60 81 87
11 22 41 44 52 86 89
12 2 24 37 79 88 96
13 72 73 84
14 5 61 80 99
15 17 21 69 83 100
16 12 26 27 34 48 54
17 4 10 29 35 70
18 3 25 62
19 14 59 68 91
20 20 47 97
21 30 43 49 65 74 85 93
22 9 16 31
EOF